8
0    227  347  656  416  1066 1356 1795
227  0    439  577  526  980  1270 1710
348  440  0    429  517  839  1129 1569
640  586  436  0    945  406  696  1135
408  517  517  939  0    1349 1639 2079
1066 982  845  403  1354 0    303  743
1354 1270 1133 691  1642 304  0    457
1792 1708 1571 1130 2081 742  457  0